c This is QMaxSAT 2017 based on 14.07
c This is Glucose 3.0
c This is MiniSat 2.2.0
c WARNING: for repeatability, setting FPU to use double precision
c card = mrwto, comp = 0, pmodel = 0, narr = 2, mct = 16, verb = 0
cr firstCPXsol 0 0 0
c top = 214379
c |  Number of variables:    248747                                           |
c |  Number of clauses:      5958004                                          |
c |  Weight of hard clauses: 214379                                           |
c |  Number of soft clauses: 480                                              |
c |  Number of unit soft clauses: 480                                         |
c |  Maximum Cardinality (by unit): 428756       (428756      )               |
c last restart ## conflicts  :  24 30439 
o 7579 | cpuTime 4.32746 s
c Sum of weights = 214378
c A number of soft clauses remained = 240
c MRWTO encoding for Pseudo-Boolean Constraints
c sizeMax=7579
c No.0 Divisor=10	generated by pow1
c No.1 Divisor=10	generated by pow1
c No.2 Divisor=10	generated by pow1
c No.3 Divisor=10	generated by pow1
c p0= 10	p1= 10	p2= 10	p3= 10	
c number of digits = 5
c linkingVar[0].size = 10, linkingVar[1].size = 10, linkingVar[2].size = 10, linkingVar[3].size = 8, linkingVar[4].size = 1, 
c Pseudo-Boolean Constraints: 6457 variables and 59049 clauses
c Sum of weights = 214378
c A number of soft clauses remained = 240
c MRWTO encoding for Pseudo-Boolean Constraints
c sizeMax=7579
c No.0 Divisor=10	generated by pow1
c No.1 Divisor=10	generated by pow1
c No.2 Divisor=10	generated by pow1
c No.3 Divisor=10	generated by pow1
c p0= 10	p1= 10	p2= 10	p3= 10	
c number of digits = 5
c linkingVar[0].size = 10, linkingVar[1].size = 10, linkingVar[2].size = 10, linkingVar[3].size = 8, linkingVar[4].size = 1, 
c Pseudo-Boolean Constraints: 6457 variables and 59049 clauses
c last restart ## conflicts  :  237 31977 
o 7406 | cpuTime 4.46862 s
c last restart ## conflicts  :  184 31605 
o 6675 | cpuTime 5.13513 s
c last restart ## conflicts  :  61 30996 
o 6338 | cpuTime 26.0029 s
c last restart ## conflicts  :  207 31701 
o 6294 | cpuTime 26.1583 s
c last restart ## conflicts  :  57 31291 
o 6239 | cpuTime 35.3804 s
c last restart ## conflicts  :  58 31849 
o 6177 | cpuTime 35.4359 s
c last restart ## conflicts  :  165 31165 
o 5442 | cpuTime 44.2064 s
c last restart ## conflicts  :  116 31358 
o 5277 | cpuTime 44.7594 s
c last restart ## conflicts  :  785 32798 
o 5265 | cpuTime 59.9933 s
c last restart ## conflicts  :  202 32211 
o 5223 | cpuTime 198.633 s
c last restart ## conflicts  :  79 33014 
o 5168 | cpuTime 388.662 s
c last restart ## conflicts  :  394 34497 
o 5167 | cpuTime 453.55 s
c last restart ## conflicts  :  26 34357 
o 5151 | cpuTime 453.605 s
c last restart ## conflicts  :  630 33198 
o 5150 | cpuTime 547.042 s
c last restart ## conflicts  :  134 34462 
o 5145 | cpuTime 577.886 s
c last restart ## conflicts  :  698 31168 
o 5144 | cpuTime 590.778 s
s OPTIMUM FOUND
cr positiVarArr: [ | 16@1(1->16) | 20@1(2->4) | 34@1(3->2) | 56@1(4->8) | 73@1(5->9) | 99@1(7->3) | 113@1(8->1) | 138@1(9->10) | 151@1(10->7) | 190@1(12->14) | 204@1(13->12) | 223@1(14->15) | 229@1(15->5) | 253@1(16->13) | 267@2(1->11) | 337@2(6->1) | 422@2(11->6) | ]
cr the 1-th chain: [ 1->16->13->12->14->15->5->9->10->7->3->2->4->8->1 ] (#non-depot=13) {#cumul.=14}
cr the 2-th chain: [ 1->11->6->1 ] (#non-depot=2) {#cumul.=16}
c Latest Answer = 0 by 17 loops
c restarts              : 7782
c conflicts             : 1945059        (1289 /sec)
c decisions             : 5157866        (0.00 % random) (3417 /sec)
c propagations          : 11020209079    (7301450 /sec)
c conflict literals     : 136752768      (42.28 % deleted)
c Memory used           : 673.00 MB
c CPU time              : 1509.32 s
